27 88 63 90 10 31 
62 11 64 49 19 7 52 
21 72 39 23 67 56 4 26 
92 37 91 44 14 38 86 16 61 100 98 93 
2 57 43 15 41 22 75 74 73 58 
69 1 30 20 9 35 34 29 80 
51 71 65 66 32 70 
48 47 36 46 8 82 18 
53 40 
94 95 59 85 99 96 6 
60 83 45 84 17 5 89 
76 68 3 77 28 
50 33 81 78 79 24 55 25 54 12 
97 42 87 13 
